GLPSOL--GLPK LP/MIP Solver 5.0
Parameter(s) specified in the command line:
 --lp ../modeles/20_34.lp --log 20_34.log
Reading problem data from '../modeles/20_34.lp'...
761 rows, 1400 columns, 4820 non-zeros
680 integer variables, all of which are binary
2187 lines were read
GLPK Integer Optimizer 5.0
761 rows, 1400 columns, 4820 non-zeros
680 integer variables, all of which are binary
Preprocessing...
680 constraint coefficient(s) were reduced
761 rows, 1380 columns, 4800 non-zeros
680 integer variables, all of which are binary
Scaling...
 A: min|aij| =  1.384e-02  max|aij| =  4.000e+00  ratio =  2.890e+02
GM: min|aij| =  2.425e-01  max|aij| =  4.123e+00  ratio =  1.700e+01
EQ: min|aij| =  5.882e-02  max|aij| =  1.000e+00  ratio =  1.700e+01
2N: min|aij| =  5.536e-02  max|aij| =  1.710e+00  ratio =  3.089e+01
Constructing initial basis...
Size of triangular part is 761
Solving LP relaxation...
GLPK Simplex Optimizer 5.0
761 rows, 1380 columns, 4800 non-zeros
      0: obj =   4.000000000e+01 inf =   9.950e+01 (41)
    140: obj =  -3.360383944e+00 inf =   0.000e+00 (0)
*   313: obj =  -4.401960784e+00 inf =   8.399e-16 (0)
OPTIMAL LP SOLUTION FOUND
Integer optimization begins...
Long-step dual simplex will be used
+   313: mip =     not found yet >=              -inf        (1; 0)
+   323: >>>>>  -4.401960784e+00 >=  -4.401960784e+00 < 0.1% (7; 0)
+   323: mip =  -4.401960784e+00 >=     tree is empty   0.0% (0; 13)
INTEGER OPTIMAL SOLUTION FOUND
Time used:   0.0 secs
Memory used: 2.1 Mb (2158316 bytes)
